SYSTEM = MOF

 Startparameter for this Run:
   NWRITE =      2;   LPETIM=F    write-flag & timer
   ISTART =      0    job   : 0-new  1-cont  2-samecut
   GGA=PE
   IVDW = 12
   ENCUT = 600.00 eV
   LCHARG = .False.
   LWAVE  = .False.
   ISMEAR = 0;   SIGMA = 0.2 
   ISPIN = 2
   MAGMOM = 24*0 16*0 1*5 1*0 6*0 4*0 
   LORBIT = 11
   LDAU      = .TRUE.
   LDAUTYPE  = 2
   LDAUL     = -1    -1   2   -1    -1    -1
   LDAUU     = 0.0    0.0   4.0   0.0    0.0    0.0
   LDAUJ     = 0.0    0.0   0.0   0.0    0.0    0.0
   LDAUPRINT = 2
   LMAXMIX   = 4

 Electronic Relaxation 1
   PREC   = normal
   NELM   =     60;   NELMIN = 2
   EDIFF  =   1E-04   stopping-criterion for ELM
   MAXMIX = 40
   EDIFFG = -0.05

 Ionic Relaxation
   NSW    =    200    number of steps for ION
   IBRION = 2     relaxation, conjugate gradient
   ISIF= 3
   POTIM = 0.5

 Electronic Relaxation 2
   ALGO  = Normal  
   LDIAG  = .TRUE.
   LREAL  = Auto
   LPLANE = T
   NPAR = 2
