SIFSIX_2_Cu
1.0
       13.6316003799         0.0000000000         0.0000000000
        0.0000000000        13.6316003799         0.0000000000
        0.0000000000         0.0000000000         7.9679999352
    C    H   Cu   Si    F    N
   24   16    1    1    6    4
Direct
     0.531241725         0.697564372         0.136446164
     0.532526970         0.799121491         0.141095655
     0.468758345         0.302435628         0.136446164
     0.467472995         0.200878491         0.141095655
     0.302435628         0.531241725         0.136446164
     0.200878491         0.532526970         0.141095655
     0.697564372         0.468758345         0.136446164
     0.799121491         0.467472995         0.141095655
     0.468758345         0.697564372         0.863553836
     0.467472995         0.799121491         0.858904315
     0.531241725         0.302435628         0.863553836
     0.532526970         0.200878491         0.858904315
     0.697564372         0.531241725         0.863553836
     0.799121491         0.532526970         0.858904315
     0.302435628         0.468758345         0.863553836
     0.200878491         0.467472995         0.858904315
     0.500000000         0.148117197         0.000000000
     0.500000000         0.044631139         0.000000000
     0.500000000         0.851882803         0.000000000
     0.500000000         0.955368804         0.000000000
     0.851882803         0.500000000         0.000000000
     0.955368804         0.500000000         0.000000000
     0.148117197         0.500000000         0.000000000
     0.044631139         0.500000000         0.000000000
     0.554769529         0.654353796         0.244408668
     0.558317194         0.836961056         0.252994221
     0.445230471         0.345646134         0.244408668
     0.441682841         0.163038874         0.252994221
     0.345646134         0.554769529         0.244408668
     0.163038874         0.558317194         0.252994221
     0.654353796         0.445230471         0.244408668
     0.836961056         0.441682841         0.252994221
     0.445230471         0.654353796         0.755591332
     0.441682841         0.836961056         0.747005809
     0.554769529         0.345646134         0.755591332
     0.558317194         0.163038874         0.747005809
     0.654353796         0.554769529         0.755591332
     0.836961056         0.558317194         0.747005809
     0.345646134         0.445230471         0.755591332
     0.163038874         0.441682841         0.747005809
     0.500000000         0.500000000         0.000000000
     0.500000000         0.500000000         0.500000000
     0.500000000         0.500000000         0.717971166
     0.500000000         0.500000000         0.282028864
     0.588893734         0.588893734         0.500000000
     0.411106301         0.588893734         0.500000000
     0.411106301         0.411106301         0.500000000
     0.588893734         0.411106301         0.500000000
     0.500000000         0.351921701         0.000000000
     0.500000000         0.648078264         0.000000000
     0.648078264         0.500000000         0.000000000
     0.351921701         0.500000000         0.000000000
