SIFSIX_6_Cd_i
1.0
       18.1426696777         0.0000000000         0.0000000000
        0.0000000000        18.1426696777         0.0000000000
        0.0000000000         0.0000000000        15.6469402313
    N    C    H    F   Cd   Si   Xe
   16  160  112   24    4    4   1
Cartesian
     4.411587715         2.214868784         2.007631779
     4.659747124         6.856466293         2.007631779
     6.856466293         4.411587715         2.007631779
     2.214868784         4.659747124         2.007631779
    13.731081963        11.286204338         5.815837860
    13.482922554        15.927800179         5.815837860
    11.286204338        13.482922554         5.815837860
    15.927800179        13.731081963         5.815837860
    13.731081963        15.927800179        13.639307976
    13.482922554        11.286204338        13.639307976
    11.286204338        13.731081963        13.639307976
    15.927800179        13.482922554        13.639307976
     4.411587715         6.856466293         9.831102371
     4.659747124         2.214868784         9.831102371
     6.856466293         4.659747124         9.831102371
     2.214868784         4.411587715         9.831102371
     3.709454298         1.576795697         2.961056948
     3.554134607         0.195042729         2.951875210
     4.197728157        17.579883575         1.961020589
     4.950934887         0.120658845         0.994227886
     5.010128975         1.509271264         1.031772137
     4.100653172        16.108095169         1.943140984
     5.248489380        15.335319519         1.895544529
     5.179023743        13.923270226         1.913644075
     2.727260590        14.101443291         1.954414845
     2.828438759        15.473838806         1.990169406
     5.361879826         7.494539738         2.961056948
     5.517199516         8.876292229         2.951875210
     4.873607159         9.634119987         1.961020589
     4.120400429         8.950675964         0.994227886
     4.061206341         7.562063694         1.031772137
     4.970681667        11.105910301         1.943140984
     3.822846174        11.878684998         1.895544529
     3.892310858        13.290734291         1.913644075
     6.344074249        13.112561226         1.954414845
     6.242896557        11.740165710         1.990169406
     7.494539738         3.709454298         2.961056948
     8.876292229         3.554134607         2.951875210
     9.634119987         4.197728157         1.961020589
     8.950675964         4.950934887         0.994227886
     7.562063694         5.010128975         1.031772137
    11.105910301         4.100653172         1.943140984
    11.878684998         5.248489380         1.895544529
    13.290734291         5.179023743         1.913644075
    13.112561226         2.727260590         1.954414845
    11.740165710         2.828438759         1.990169406
     1.576795697         5.361879826         2.961056948
     0.195042729         5.517199516         2.951875210
    17.579883575         4.873607159         1.961020589
     0.120658845         4.120400429         0.994227886
     1.509271264         4.061206341         1.031772137
    16.108095169         4.970681667         1.943140984
    15.335319519         3.822846174         1.895544529
    13.923270226         3.892310858         1.913644075
    14.101443291         6.344074249         1.954414845
    15.473838806         6.242896557         1.990169406
    14.433216095        10.648130417         4.862413406
    14.588535309         9.266377449         4.871594429
    13.944941521         8.508549690         5.862448692
    13.191734314         9.191994667         6.829242229
    13.132540703        10.580606461         6.791698456
    14.042016983         7.036760807         5.880329132
    12.894181252         6.263983250         5.927925587
    12.963645935         4.851933956         5.909825802
    15.415410042         5.030107021         5.869055271
    15.314229965         6.402503967         5.833301544
    12.780788422        16.565874100         4.862413406
    12.625469208        17.947626114         4.871594429
    13.269062996         0.562785327         5.862448692
    14.022270203        18.022010803         6.829242229
    14.081463814        16.633399963         6.791698456
    13.171987534         2.034574509         5.880329132
    14.319823265         2.807351112         5.927925587
    14.250358582         4.219400406         5.909825802
    11.798594475         4.041227818         5.869055271
    11.899774551         2.668830872         5.833301544
    10.648130417        12.780788422         4.862413406
     9.266377449        12.625469208         4.871594429
     8.508549690        13.269062996         5.862448692
     9.191994667        14.022270203         6.829242229
    10.580606461        14.081463814         6.791698456
     7.036760807        13.171987534         5.880329132
     6.263983250        14.319823265         5.927925587
     4.851933956        14.250358582         5.909825802
     5.030107021        11.798594475         5.869055271
     6.402503967        11.899774551         5.833301544
    16.565874100        14.433216095         4.862413406
    17.947626114        14.588535309         4.871594429
     0.562785327        13.944941521         5.862448692
    18.022010803        13.191734314         6.829242229
    16.633399963        13.132540703         6.791698456
     2.034574509        14.042016983         5.880329132
     2.807351112        12.894181252         5.927925587
     4.219400406        12.963645935         5.909825802
     4.041227818        15.415410042         5.869055271
     2.668830872        15.314229965         5.833301544
    14.433216095        16.565874100        12.685882568
    14.588535309        17.947626114        12.695065498
    13.944941521         0.562785327        13.685919762
    13.191734314        18.022010803        14.652711868
    13.132540703        16.633399963        14.615168571
    14.042016983         2.034574509        13.703799248
    12.894181252         2.807351112        13.751396179
    12.963645935         4.219400406        13.733296394
    15.415410042         4.041227818        13.692525864
    15.314229965         2.668830872        13.656771660
    12.780788422        10.648130417        12.685882568
    12.625469208         9.266377449        12.695065498
    13.269062996         8.508549690        13.685919762
    14.022270203         9.191994667        14.652711868
    14.081463814        10.580606461        14.615168571
    13.171987534         7.036760807        13.703799248
    14.319823265         6.263983250        13.751396179
    14.250358582         4.851933956        13.733296394
    11.798594475         5.030107021        13.692525864
    11.899774551         6.402503967        13.656771660
    10.648130417        14.433216095        12.685882568
     9.266377449        14.588535309        12.695065498
     8.508549690        13.944941521        13.685919762
     9.191994667        13.191734314        14.652711868
    10.580606461        13.132540703        14.615168571
     7.036760807        14.042016983        13.703799248
     6.263983250        12.894181252        13.751396179
     4.851933956        12.963645935        13.733296394
     5.030107021        15.415410042        13.692525864
     6.402503967        15.314229965        13.656771660
    16.565874100        12.780788422        12.685882568
    17.947626114        12.625469208        12.695065498
     0.562785327        13.269062996        13.685919762
    18.022010803        14.022270203        14.652711868
    16.633399963        14.081463814        14.615168571
     2.034574509        13.171987534        13.703799248
     2.807351112        14.319823265        13.751396179
     4.219400406        14.250358582        13.733296394
     4.041227818        11.798594475        13.692525864
     2.668830872        11.899774551        13.656771660
     3.709454298         7.494539738        10.784527779
     3.554134607         8.876292229        10.775344849
     4.197728157         9.634119987         9.784490585
     4.950934887         8.950675964         8.817698479
     5.010128975         7.562063694         8.855241776
     4.100653172        11.105910301         9.766611099
     5.248489380        11.878684998         9.719014168
     5.179023743        13.290734291         9.737113953
     2.727260590        13.112561226         9.777884483
     2.828438759        11.740165710         9.813638687
     5.361879826         1.576795697        10.784527779
     5.517199516         0.195042729        10.775344849
     4.873607159        17.579883575         9.784490585
     4.120400429         0.120658845         8.817698479
     4.061206341         1.509271264         8.855241776
     4.970681667        16.108095169         9.766611099
     3.822846174        15.335319519         9.719014168
     3.892310858        13.923270226         9.737113953
     6.344074249        14.101443291         9.777884483
     6.242896557        15.473838806         9.813638687
     7.494539738         5.361879826        10.784527779
     8.876292229         5.517199516        10.775344849
     9.634119987         4.873607159         9.784490585
     8.950675964         4.120400429         8.817698479
     7.562063694         4.061206341         8.855241776
    11.105910301         4.970681667         9.766611099
    11.878684998         3.822846174         9.719014168
    13.290734291         3.892310858         9.737113953
    13.112561226         6.344074249         9.777884483
    11.740165710         6.242896557         9.813638687
     1.576795697         3.709454298        10.784527779
     0.195042729         3.554134607        10.775344849
    17.579883575         4.197728157         9.784490585
     0.120658845         4.950934887         8.817698479
     1.509271264         5.010128975         8.855241776
    16.108095169         4.100653172         9.766611099
    15.335319519         5.248489380         9.719014168
    13.923270226         5.179023743         9.737113953
    14.101443291         2.727260590         9.777884483
    15.473838806         2.828438759         9.813638687
     3.288918018         2.196494818         3.758434296
     2.970517397        17.847167969         3.731602907
     5.453430176        17.713514328         0.197670549
     5.522039413         2.084228277         0.254260272
     6.229230881        15.816474915         1.882350802
     1.747766852        13.616039276         1.965426564
     1.930543542        16.094684601         2.024225950
     5.782416344         6.874840736         3.758434296
     6.100818157         9.366836548         3.731602907
     3.617905140         9.500490189         0.197670549
     3.549295902         6.987106800         0.254260272
     2.842103958        11.397529602         1.882350802
     7.323567867        13.597965240         1.965426564
     7.140791416        11.119319916         2.024225950
     6.874840736         3.288918018         3.758434296
     9.366836548         2.970517397         3.731602907
     9.500490189         5.453430176         0.197670549
     6.987106800         5.522039413         0.254260272
    11.397529602         6.229230881         1.882350802
    13.597965240         1.747766852         1.965426564
    11.119319916         1.930543542         2.024225950
     2.196494818         5.782416344         3.758434296
    17.847167969         6.100818157         3.731602907
    17.713514328         3.617905140         0.197670549
     2.084228277         3.549295902         0.254260272
    15.816474915         2.842103958         1.882350802
    13.616039276         7.323567867         1.965426564
    16.094684601         7.140791416         2.024225950
    14.853751183        11.267830849         4.065036297
    15.172151566         8.775834084         4.091867447
    12.689239502         8.642179489         7.625799656
    12.620632172        11.155564308         7.569210052
    11.913437843         6.745139122         5.941119671
    16.394901276         4.544704914         5.858043671
    16.212125778         7.023349762         5.799244404
    12.360253334        15.946173668         4.065036297
    12.041852951         0.295500904         4.091867447
    14.524765015         0.429155558         7.625799656
    14.593372345        16.058441162         7.569210052
    15.300566673         2.326196194         5.941119671
    10.819101334         4.526628971         5.858043671
    11.001878738         2.047984838         5.799244404
    11.267830849        12.360253334         4.065036297
     8.775834084        12.041852951         4.091867447
     8.642179489        14.524765015         7.625799656
    11.155564308        14.593372345         7.569210052
     6.745139122        15.300566673         5.941119671
     4.544704914        10.819101334         5.858043671
     7.023349762        11.001878738         5.799244404
    15.946173668        14.853751183         4.065036297
     0.295500904        15.172151566         4.091867447
     0.429155558        12.689239502         7.625799656
    16.058441162        12.620632172         7.569210052
     2.326196194        11.913437843         5.941119671
     4.526628971        16.394901276         5.858043671
     2.047984838        16.212125778         5.799244404
    14.853751183        15.946173668        11.888505936
    15.172151566         0.295500904        11.915338516
    12.689239502         0.429155558        15.449270248
    12.620632172        16.058441162        15.392679214
    11.913437843         2.326196194        13.764589310
    16.394901276         4.526628971        13.681511879
    16.212125778         2.047984838        13.622714043
    12.360253334        11.267830849        11.888505936
    12.041852951         8.775834084        11.915338516
    14.524765015         8.642179489        15.449270248
    14.593372345        11.155564308        15.392679214
    15.300566673         6.745139122        13.764589310
    10.819101334         4.544704914        13.681511879
    11.001878738         7.023349762        13.622714043
    11.267830849        14.853751183        11.888505936
     8.775834084        15.172151566        11.915338516
     8.642179489        12.689239502        15.449270248
    11.155564308        12.620632172        15.392679214
     6.745139122        11.913437843        13.764589310
     4.544704914        16.394901276        13.681511879
     7.023349762        16.212125778        13.622714043
    15.946173668        12.360253334        11.888505936
     0.295500904        12.041852951        11.915338516
     0.429155558        14.524765015        15.449270248
    16.058441162        14.593372345        15.392679214
     2.326196194        15.300566673        13.764589310
     4.526628971        10.819101334        13.681511879
     2.047984838        11.001878738        13.622714043
     3.288918018         6.874840736        11.581904411
     2.970517397         9.366836548        11.555071831
     5.453430176         9.500490189         8.021140099
     5.522039413         6.987106800         8.077730179
     6.229230881        11.397529602         9.705821037
     1.747766852        13.597965240         9.788898468
     1.930543542        11.119319916         9.847696304
     5.782416344         2.196494818        11.581904411
     6.100818157        17.847167969        11.555071831
     3.617905140        17.713514328         8.021140099
     3.549295902         2.084228277         8.077730179
     2.842103958        15.816474915         9.705821037
     7.323567867        13.616039276         9.788898468
     7.140791416        16.094684601         9.847696304
     6.874840736         5.782416344        11.581904411
     9.366836548         6.100818157        11.555071831
     9.500490189         3.617905140         8.021140099
     6.987106800         3.549295902         8.077730179
    11.397529602         2.842103958         9.705821037
    13.597965240         7.323567867         9.788898468
    11.119319916         7.140791416         9.847696304
     2.196494818         3.288918018        11.581904411
    17.847167969         2.970517397        11.555071831
    17.713514328         5.453430176         8.021140099
     2.084228277         5.522039413         8.077730179
    15.816474915         6.229230881         9.705821037
    13.616039276         1.747766852         9.788898468
    16.094684601         1.930543542         9.847696304
     5.756041050         3.331188917         5.930003166
     3.315294266         5.740145683         5.930003166
     5.740145683         5.756041050         5.930003166
     3.331188917         3.315294266         5.930003166
    12.386628151        12.402523041         1.893467307
    14.827376366        14.811481476         1.893467307
    12.402523041        14.827376366         1.893467307
    14.811481476        12.386628151         1.893467307
    12.386628151        14.811481476         9.716937065
    14.827376366        12.402523041         9.716937065
    12.402523041        12.386628151         9.716937065
    14.811481476        14.827376366         9.716937065
     5.756041050         5.740145683        13.753473282
     3.315294266         3.331188917        13.753473282
     5.740145683         3.315294266        13.753473282
     3.331188917         5.756041050        13.753473282
     4.535667419         4.535667419         4.212016106
     4.535667419         4.535667419         7.646821499
    13.607002258        13.607002258         3.611454248
    13.607002258        13.607002258         0.176648855
    13.607002258        13.607002258        11.434923172
    13.607002258        13.607002258         8.000119209
     4.535667419         4.535667419        12.035487175
     4.535667419         4.535667419        15.470291138
     4.535667419         4.535667419         2.019912243
    13.607002258        13.607002258         5.803557873
    13.607002258        13.607002258        13.627028465
     4.535667419         4.535667419         9.843381882
     4.535667419         4.535667419         5.929673195
    13.607002258        13.607002258         1.893797040
    13.607002258        13.607002258         9.717266083
     4.535667419         4.535667419        13.753144264
       27.070  28.147   8.522   
