SimulationType                MonteCarlo
NumberOfCycles                 500000
NumberOfInitializationCycles   250000
RestartFile                    no
PrintEvery                     50000

Forcefield                    MOFs
EwaldPrecision                1e-6

CutOff                        12.0

Framework                     0 
FrameworkName                 SIFSIX_6_Cd_i
UnitCells                     2 2 2
ExternalTemperature           298.0
ExternalPressure    1e+05

Movies                        yes 
WriteMoviesEvery              100000

Component 0 MoleculeName             Xe_xenon
            MoleculeDefinition       TraPPEUA
            MolFraction              0.5			
            IdealGasRosenbluthWeight 1.00063
            TranslationProbability   0.5
            RegrowProbability        0.5
            RotationProbability      0.5
            ReinsertionProbability   0.5
            SwapProbability          1.0
            CreateNumberOfMolecules  0

Component 1 MoleculeName             Kr_krypton
            MoleculeDefinition       TraPPEUA
            MolFraction              0.5			
            IdealGasRosenbluthWeight 1.00023
            TranslationProbability   0.5
            RegrowProbability        0.5
            RotationProbability      0.5
            ReinsertionProbability   0.5
            SwapProbability          1.0
            CreateNumberOfMolecules  0
