SimulationType                MonteCarlo
NumberOfCycles                50000
NumberOfInitializationCycles  0
PrintEvery                    1000
PrintPropertiesEvery          1000

Forcefield                    MOFs
EwaldPrecision                1e-6

CutOff                        12.0

Framework                     0 
FrameworkName                 SIFSIX_2_Cu
UnitCells                     2 2 4
ExternalTemperature           298.0

Movies                        yes 
WriteMoviesEvery              10000

Component 0 MoleculeName             Kr_krypton
            MoleculeDefinition       TraPPEUA	
            IdealGasRosenbluthWeight 1.00023		
            WidomProbability         1.0
            CreateNumberOfMolecules  0

Component 1 MoleculeName             Xe_xenon
            MoleculeDefinition       TraPPEUA	
            IdealGasRosenbluthWeight 1.00063		
            WidomProbability         1.0
            CreateNumberOfMolecules  0



